p wcnf 140 70 71 
1 32 -43 0 
1 -111 23 0 
1 -14 112 0 
1 -13 -120 0 
1 94 -65 0 
1 44 -5 0 
1 122 -130 0 
1 108 -139 0 
1 -54 10 0 
1 34 -95 0 
1 82 -92 0 
1 27 26 0 
1 2 107 0 
1 42 -25 0 
1 -12 101 0 
1 12 98 0 
1 -48 -120 0 
1 -8 33 0 
1 -98 -82 0 
1 125 9 0 
1 -50 -90 0 
1 54 22 0 
1 -93 122 0 
1 -30 51 0 
1 -106 -96 0 
1 -36 87 0 
1 -29 28 0 
1 -74 67 0 
1 11 119 0 
1 106 37 0 
1 -7 86 0 
1 -74 -80 0 
1 -69 45 0 
1 -42 -52 0 
1 29 -90 0 
1 -44 -137 0 
1 -13 44 0 
1 79 82 0 
1 86 -82 0 
1 25 -14 0 
1 -130 -92 0 
1 -92 107 0 
1 57 -31 0 
1 -33 -32 0 
1 -83 51 0 
1 106 127 0 
1 -49 116 0 
1 135 -77 0 
1 4 -13 0 
1 -120 -35 0 
1 38 51 0 
1 5 90 0 
1 42 -79 0 
1 81 49 0 
1 87 -118 0 
1 -14 79 0 
1 -74 103 0 
1 -17 36 0 
1 -127 5 0 
1 -140 -52 0 
1 129 24 0 
1 119 -57 0 
1 -59 -121 0 
1 138 -46 0 
1 131 138 0 
1 -6 -84 0 
1 123 59 0 
1 115 52 0 
1 44 80 0 
1 -103 134 0 
